
Gurobi 10.0.1 (linux64) logging started Sun Nov 26 15:37:30 2023

Set parameter LogFile to value "ArtificialInstance/ExperimentV2/S4T5K2/AdRo/gurobi1.txt"
Gurobi Optimizer version 10.0.1 build v10.0.1rc0 (linux64)

CPU model: AMD EPYC 7H12 64-Core Processor, instruction set [SSE2|AVX|AVX2]
Thread count: 128 physical cores, 128 logical processors, using up to 32 threads

Academic license 656792 - for non-commercial use only - registered to b.___@student.vu.nl
Optimize a model with 14044 rows, 13216 columns and 51389 nonzeros
Model fingerprint: 0x71e08fd5
Variable types: 1 continuous, 13215 integer (13215 binary)
Coefficient statistics:
  Matrix range     [1e+00, 4e+01]
  Objective range  [1e+00, 2e+01]
  Bounds range     [1e+00, 1e+00]
  RHS range        [1e+00, 1e+00]
Presolve removed 3165 rows and 3244 columns
Presolve time: 0.28s
Presolved: 10879 rows, 9972 columns, 39607 nonzeros
Variable types: 1 continuous, 9971 integer (9971 binary)

Root relaxation: objective 6.820133e+01, 5561 iterations, 0.32 seconds (0.20 work units)

    Nodes    |    Current Node    |     Objective Bounds      |     Work
 Expl Unexpl |  Obj  Depth IntInf | Incumbent    BestBd   Gap | It/Node Time

     0     0   68.20133    0    2          -   68.20133      -     -    0s
H    0     0                      68.3471120   68.20133  0.21%     -    0s
H    0     0                      68.2013317   68.20133  0.00%     -    0s

Cutting planes:
  Gomory: 1
  MIR: 3

Explored 1 nodes (8202 simplex iterations) in 0.90 seconds (0.57 work units)
Thread count was 32 (of 128 available processors)

Solution count 2: 68.2013 68.3471 

Optimal solution found (tolerance 1.00e-04)
Best objective 6.820133171192e+01, best bound 6.820133171192e+01, gap 0.0000%
